problems/csplib-prob017/RamseyNumbers-models/00_compact/O0/minion/model-03-05-02-SAT-solution000001.eprime-solution
language ESSENCE' 1.0

letting graph_FunctionNDPartial_Flags be [[false, true; int(1..2)], [true, false; int(1..2)]; int(1..2)]
$ Visualisation for graph_FunctionNDPartial_Flags
$ _ T
$ T _

letting graph_FunctionNDPartial_Values be [[1, 1; int(1..2)], [1, 1; int(1..2)]; int(1..2)]
$ Visualisation for graph_FunctionNDPartial_Values
$ 1 1
$ 1 1

