problems/csplib-prob017/RamseyNumbers-models/00_compact/O2/minion/model-03-05-02-SAT-solution000001.solution
language Essence 1.3

letting graph be function((1, 2) --> red, (2, 1) --> red)
